53
2 25
19 7
3 30
12 26
7 30
20 40
16 34
15 36
24 39
5 33
14 41
0 35
23 24
8 14
16 21
7 22
21 26
1 30
17 0
10 30
3 1
18 35
6 0
13 9
6 30
8 7
16 12
12 11
11 25
1 13
17 30
21 31
7 18
13 3
3 2
2 15
12 18
13 17
12 23
7 9
5 28
9 16
7 2
10 17
11 34
17 35
23 40
13 39
6 38
22 34
21 33
1 39
18 32

